\ Model firm
\ LP format - for model browsing. Use MPS format to capture full model detail.
Maximize
  21.32633636845873 output - 5 emission + [ - 0.8027633760716439 output ^2
   + 1.205526752143288 output * emission - 0.6027633760716439 emission ^2
   ] / 2 
Subject To
 R0: - output + emission <= 0
Bounds
End
